0000000000000000
0000000000000000
0000010000000000
0000010000000000
0000010000000000
0000010000000000
0000011111000000
0000000001110000
0000000000110000
0000000000100000
0000000001000000
0000000001100000
0000000010000000
0000000100000000
0000001000000000
0000001000000000
